h=8;
w=8;
left=[5, 3, 3, 0, 0, 0, 0, 0];
right=[1, 2, 3, 3, 0, 0, 0, 0];
top=[0, 3, 3, 0, 0, 0, 0, 0];
down=[2, 0, 1, 4, 0, 0, 0, 0];
b=[|0,4,1,0,3,0,6,8|5,1,0,8,0,4,3,0|3,7,5,4,6,8,0,1|0,0,4,2,1,0,7,0|1,0,0,7,4,0,8,5|0,3,0,1,8,0,0,0|0,5,0,6,0,2,1,0|7,0,8,0,5,1,4,2|]